Al4
1.0
4.000000 0.000000 0.000000
0.000000 4.000000 0.000000
0.000000 0.000000 4.000000
Al
4
direct
0.000000 0.000000 0.000000 Al
1.000000 0.000000 0.000000 Al
0.000000 1.000000 0.000000 Al
0.000000 0.000000 1.000000 Al
